NAME 
ROWS
 N  OBJ
 L  R0      
 L  R1      
 L  R2      
 E  R3      
 E  R4      
 E  R5      
 E  R6      
 E  R7      
 E  R8      
 E  R9      
 E  R10     
 E  R11     
 E  R12     
 E  R13     
 E  R14     
 E  R15     
 E  R16     
 E  R17     
COLUMNS
    MARKER    'MARKER'                 'INTORG'
    I0(8)     OBJ       -121
    I0(8)     R0        177
    I0(8)     R1        -45
    I0(8)     R2        -170
    I0(8)     R3        18
    I0(8)     R4        15
    I0(8)     R6        7
    I0(8)     R9        16
    I0(8)     R17       1
    I1(8)     OBJ       68
    I1(8)     R0        -149
    I1(8)     R1        153
    I1(8)     R2        131
    I1(8)     R3        15
    I1(8)     R6        10
    I1(8)     R7        6
    I1(8)     R9        9
    I1(8)     R17       1
    I2(8)     OBJ       -191
    I2(8)     R0        -114
    I2(8)     R1        198
    I2(8)     R2        156
    I2(8)     R3        19
    I2(8)     R5        17
    I2(8)     R6        4
    I2(8)     R7        19
    I2(8)     R17       1
    I3(6)     OBJ       -122
    I3(6)     R0        52
    I3(6)     R1        149
    I3(6)     R2        51
    I3(6)     R6        18
    I3(6)     R7        14
    I3(6)     R17       1
    I4(8)     OBJ       57
    I4(8)     R0        -175
    I4(8)     R1        60
    I4(8)     R2        135
    I4(8)     R3        14
    I4(8)     R4        16
    I4(8)     R5        9
    I4(8)     R6        19
    I4(8)     R17       1
    I5(9)     OBJ       -104
    I5(9)     R0        120
    I5(9)     R1        157
    I5(9)     R2        40
    I5(9)     R4        2
    I5(9)     R5        15
    I5(9)     R6        3
    I5(9)     R7        8
    I5(9)     R9        7
    I5(9)     R17       1
    I6(7)     OBJ       113
    I6(7)     R0        18
    I6(7)     R1        -143
    I6(7)     R2        167
    I6(7)     R4        19
    I6(7)     R5        15
    I6(7)     R9        -1
    I6(7)     R17       1
    MARKER    'MARKER'                 'INTEND'
    C7(13)    OBJ       -2
    C7(13)    R0        -1
    C7(13)    R1        5
    C7(13)    R2        -10
    C7(13)    R3        7
    C7(13)    R4        19
    C7(13)    R5        10
    C7(13)    R6        17
    C7(13)    R7        13
    C7(13)    R8        8
    C7(13)    R12       7
    C7(13)    R13       9
    C7(13)    R14       3
    C7(13)    R16       6
    C8(7)     OBJ       -6
    C8(7)     R0        -1
    C8(7)     R1        -5
    C8(7)     R2        6
    C8(7)     R5        11
    C8(7)     R12       16
    C8(7)     R13       18
    C8(7)     R14       6
    C9(12)    OBJ       8
    C9(12)    R0        4
    C9(12)    R1        9
    C9(12)    R2        7
    C9(12)    R3        1
    C9(12)    R4        -1
    C9(12)    R5        18
    C9(12)    R6        5
    C9(12)    R8        16
    C9(12)    R9        2
    C9(12)    R13       7
    C9(12)    R15       10
    C9(12)    R16       17
    C10(9)    OBJ       -10
    C10(9)    R0        -10
    C10(9)    R1        -8
    C10(9)    R2        -6
    C10(9)    R3        7
    C10(9)    R5        3
    C10(9)    R6        10
    C10(9)    R8        1
    C10(9)    R9        19
    C10(9)    R13       3
    C11(11)   R0        3
    C11(11)   R1        -8
    C11(11)   R2        -4
    C11(11)   R4        13
    C11(11)   R7        11
    C11(11)   R9        17
    C11(11)   R10       8
    C11(11)   R11       10
    C11(11)   R13       7
    C11(11)   R15       14
    C11(11)   R16       14
    C12(12)   OBJ       -5
    C12(12)   R0        -10
    C12(12)   R1        2
    C12(12)   R2        -4
    C12(12)   R3        4
    C12(12)   R4        8
    C12(12)   R5        1
    C12(12)   R6        6
    C12(12)   R7        17
    C12(12)   R8        13
    C12(12)   R10       9
    C12(12)   R14       18
    C12(12)   R16       18
    C13(9)    OBJ       -7
    C13(9)    R0        8
    C13(9)    R1        -3
    C13(9)    R2        4
    C13(9)    R3        17
    C13(9)    R4        3
    C13(9)    R8        -1
    C13(9)    R9        11
    C13(9)    R10       1
    C13(9)    R13       17
    C14(8)    OBJ       -7
    C14(8)    R0        2
    C14(8)    R1        -1
    C14(8)    R2        1
    C14(8)    R4        17
    C14(8)    R8        19
    C14(8)    R9        10
    C14(8)    R12       3
    C14(8)    R15       4
    C15(1)    R3        1
    C16(1)    R4        1
    C17(1)    R5        1
    C18(1)    R6        1
    C19(1)    R7        1
    C20(1)    R8        1
    C21(1)    R9        1
    C22(1)    R10       1
    C23(1)    R11       1
    C24(1)    R12       1
    C25(1)    R13       1
    C26(1)    R14       1
    C27(1)    R15       1
    C28(1)    R16       1
    C29(1)    R17       1
RHS
    RHS1      R0        -2.7598838165871439e+02
    RHS1      R1        3.6887515978383306e+02
    RHS1      R2        2.9532079531216380e+02
    RHS1      R3        71
    RHS1      R4        99
    RHS1      R5        58
    RHS1      R6        52
    RHS1      R7        87
    RHS1      R8        95
    RHS1      R9        87
    RHS1      R10       73
    RHS1      R11       82
    RHS1      R12       67
    RHS1      R13       50
    RHS1      R14       85
    RHS1      R15       93
    RHS1      R16       53
    RHS1      R17       2
BOUNDS
 UP BND1      I0(8)     2
 UP BND1      I1(8)     2
 UP BND1      I2(8)     2
 UP BND1      I3(6)     2
 UP BND1      I4(8)     2
 UP BND1      I5(9)     2
 UP BND1      I6(7)     2
ENDATA
